0000011011001000000
0000011011101000100
0000111001101000010
0000111011100000100
0001011011001000000
0001011011001000100
0001011011101000000
0001011011101000100
0001111001100000010
0001111011000000110
0001111011100000100
0001111011100000110
0010011011001000000
0010011011001000100
0010011011101000100
0010111001000000010
0010111001000000100
0010111001100000010
0010111001100000100
0010111011100000100
0010111011100000110
0011011011001000000
0011011011001000100
0011011011101000000
0011011011101000100
0011111001000000010
0011111001000000100
0011111001001000100
